(set-logic QF_SLIA)
(set-option :produce-models true)
(declare-fun x () String)
(assert (str.in_re x (re.++ (re.+ (re.union (re.range "2" "6") (re.range "2" "9"))) (str.to_re "434343"))))
(assert (= (mod (mod (str.to_int x) 312) 215) 136))
(assert (< (str.len x) 100))
(check-sat)
(get-model)